0 0 0 0
0 1 0 0
0 2 0 0
0 3 2 0
0 4 1 4
0 5 0 10
0 6 0 4
0 7 0 3
0 8 2 4
0 9 2 8
0 10 0 8
0 11 0 9
0 12 0 11
0 13 0 13
0 14 1 9
0 15 1 9
0 16 0 18
0 17 0 4
0 18 0 17
0 19 0 21
0 20 1 9
0 21 0 14
0 22 0 14
0 23 0 21
0 24 0 9
0 25 0 18
0 26 0 15
0 27 0 25
0 28 0 26
0 29 0 21
0 30 2 21
0 31 0 27
